CPXPARAM_Read_DataCheck                          1
Found incumbent of value 0.000000 after 0.00 sec. (0.08 ticks)
Tried aggregator 1 time.
MIP Presolve modified 1 coefficients.
Reduced MIP has 331 rows, 3010 columns, and 15030 nonzeros.
Reduced MIP has 3010 binaries, 0 generals, 0 SOSs, and 0 indicators.
Presolve time = 0.00 sec. (5.77 ticks)
Tried aggregator 1 time.
Reduced MIP has 331 rows, 3010 columns, and 15030 nonzeros.
Reduced MIP has 3010 binaries, 0 generals, 0 SOSs, and 0 indicators.
Presolve time = 0.00 sec. (6.87 ticks)
Probing time = 0.00 sec. (2.01 ticks)
Clique table members: 3158.
MIP emphasis: balance optimality and feasibility.
MIP search method: dynamic search.
Parallel mode: deterministic, using up to 4 threads.
Root relaxation solution time = 0.02 sec. (17.83 ticks)

        Nodes                                         Cuts/
   Node  Left     Objective  IInf  Best Integer    Best Bound    ItCnt     Gap

*     0+    0                            0.0000    18432.0000              --- 
*     0+    0                         1778.0000    18432.0000           936.67%
      0     0     5084.3550    12     1778.0000     5084.3550      615  185.96%
*     0+    0                         3469.0000     5084.3550            46.57%
      0     0     4213.1147   182     3469.0000     Cuts: 182     1108   21.45%
*     0+    0                         3614.0000     4213.1147            16.58%
      0     0     3896.6360   396     3614.0000     Cuts: 182     1544    7.82%
      0     0     3758.7503   531     3614.0000     Cuts: 182     1912    4.01%
*     0+    0                         3617.0000     3758.7503             3.92%
      0     0     3689.9459   540     3617.0000     Cuts: 182     2265    2.02%
      0     0     3676.9234   588     3617.0000      Cuts: 75     2422    1.66%
*     0+    0                         3623.0000     3676.9234             1.49%
      0     0        cutoff           3623.0000     3623.0000     2468    0.00%
Elapsed time = 1.86 sec. (1001.71 ticks, tree = 0.01 MB, solutions = 6)

Clique cuts applied:  445
Cover cuts applied:  13
Implied bound cuts applied:  10
Flow cuts applied:  5
Mixed integer rounding cuts applied:  32
Zero-half cuts applied:  11

Root node processing (before b&c):
  Real time             =    1.86 sec. (1001.99 ticks)
Parallel b&c, 4 threads:
  Real time             =    0.00 sec. (0.00 ticks)
  Sync time (average)   =    0.00 sec.
  Wait time (average)   =    0.00 sec.
                          ------------
Total (root+branch&cut) =    1.86 sec. (1001.99 ticks)
